22 10
19 3 12 6 16 9 0 17 13 2 7 8 14 18 11 5 1 10 15 4 21 20 
6 19 8 9 20 4 17 11 0 14 13 12 15 5 18 16 10 2 1 3 7 21 
18 9 6 7 8 20 13 2 14 0 5 19 15 21 3 4 17 12 10 16 11 1 
13 18 16 0 12 10 15 14 19 2 17 8 1 21 9 3 4 5 11 20 6 7 
15 11 8 1 12 16 10 2 21 0 17 5 4 19 20 18 7 6 14 13 9 3 
12 2 10 3 19 13 16 15 8 21 9 20 18 11 14 6 4 0 1 5 7 17 
0 12 9 14 18 7 2 4 16 8 6 17 5 19 21 1 15 11 10 13 20 3 
21 7 6 15 10 5 0 3 2 20 11 16 18 9 1 14 4 12 19 8 17 13 
1 17 20 12 10 21 8 5 11 16 18 3 0 15 7 4 19 2 13 14 9 6 
10 9 8 2 16 5 18 1 3 11 4 17 19 6 0 21 7 12 20 15 13 14 
